
Gurobi 7.0.1 (win64) logging started 03/26/17 21:58:09

Changed value of parameter LogFile to ProvinceRunOutputs/log_prov30.log
   Prev: gurobi.log  Default: 
Optimize a model with 5834 rows, 80529 columns and 161492 nonzeros
Variable types: 0 continuous, 80529 integer (80529 binary)
Coefficient statistics:
  Matrix range     [1e+00, 1e+05]
  Objective range  [3e-01, 3e+02]
  Bounds range     [1e+00, 1e+00]
  RHS range        [1e+00, 6e+00]
Found heuristic solution: objective 639792
Presolve removed 716 rows and 12564 columns
Presolve time: 0.34s
Presolved: 5118 rows, 67965 columns, 135997 nonzeros

MIP start did not produce a new incumbent solution
MIP start violates constraint R0 by 169999.000000000

Variable types: 0 continuous, 67965 integer (67965 binary)

Root relaxation: objective 2.206134e+05, 5019 iterations, 0.03 seconds

    Nodes    |    Current Node    |     Objective Bounds      |     Work
 Expl Unexpl |  Obj  Depth IntInf | Incumbent    BestBd   Gap | It/Node Time

     0     0 220613.437    0   45 639792.041 220613.437  65.5%     -    0s
H    0     0                    266670.30249 220613.437  17.3%     -    0s
     0     0 228059.085    0 1497 266670.302 228059.085  14.5%     -    1s
     0     0 232297.128    0 2122 266670.302 232297.128  12.9%     -    2s
     0     0 244441.829    0 3831 266670.302 244441.829  8.34%     -    3s
     0     0 246689.677    0 4380 266670.302 246689.677  7.49%     -    4s
     0     0 251832.784    0 4839 266670.302 251832.784  5.56%     -    5s
H    0     0                    265960.52518 251832.784  5.31%     -    5s
H    0     0                    259549.87079 251832.784  2.97%     -    6s
     0     0 251935.273    0 5023 259549.871 251935.273  2.93%     -    6s
     0     0 253800.371    0 5850 259549.871 253800.371  2.22%     -    7s
     0     0 254029.364    0 5957 259549.871 254029.364  2.13%     -    8s
     0     0 254863.250    0 5657 259549.871 254863.250  1.81%     -    9s
     0     0 255376.240    0 5709 259549.871 255376.240  1.61%     -   10s
     0     0 256124.836    0 5502 259549.871 256124.836  1.32%     -   11s
     0     0 256138.860    0 5537 259549.871 256138.860  1.31%     -   12s
     0     0 256234.288    0 5612 259549.871 256234.288  1.28%     -   13s
     0     0 256234.288    0 5612 259549.871 256234.288  1.28%     -   15s
H    0     0                    256620.08612 256234.288  0.15%     -   16s
     0     0 256297.057    0 1498 256620.086 256297.057  0.13%     -   19s
     0     0 256297.633    0 1498 256620.086 256297.633  0.13%     -   31s
     0     0 256297.633    0 1381 256620.086 256297.633  0.13%     -   34s
     0     0 256297.633    0 1381 256620.086 256297.633  0.13%     -   44s
     0     0 256298.266    0 1381 256620.086 256298.266  0.13%     -   53s
     0     0 256299.712    0 1381 256620.086 256299.712  0.12%     -   61s
     0     0 256302.336    0 1381 256620.086 256302.336  0.12%     -   69s
     0     0 256302.912    0 1381 256620.086 256302.912  0.12%     -   78s
     0     0 256303.505    0 1381 256620.086 256303.505  0.12%     -   87s
     0     0 256303.525    0 1385 256620.086 256303.525  0.12%     -   96s
     0     0 256304.219    0 1381 256620.086 256304.219  0.12%     -  105s
     0     0 256304.239    0 1385 256620.086 256304.239  0.12%     -  115s
     0     0 256304.971    0 1385 256620.086 256304.971  0.12%     -  123s
     0     0 256305.281    0 1381 256620.086 256305.281  0.12%     -  131s
     0     0 256305.665    0 1381 256620.086 256305.665  0.12%     -  139s
     0     0 256305.686    0 1385 256620.086 256305.686  0.12%     -  139s
     0     0 256307.720    0 1381 256620.086 256307.720  0.12%     -  147s
     0     0 256307.918    0 1381 256620.086 256307.918  0.12%     -  156s
     0     0 256308.296    0 1381 256620.086 256308.296  0.12%     -  166s
     0     0 256308.494    0 1381 256620.086 256308.494  0.12%     -  174s
     0     0 256308.549    0 1380 256620.086 256308.549  0.12%     -  183s
     0     0 256308.889    0 1381 256620.086 256308.889  0.12%     -  192s
     0     0 256308.909    0 1385 256620.086 256308.909  0.12%     -  193s
     0     0 256309.107    0 1385 256620.086 256309.107  0.12%     -  201s
     0     0 256309.623    0 1385 256620.086 256309.623  0.12%     -  209s
     0     0 256309.821    0 1385 256620.086 256309.821  0.12%     -  217s
     0     0 256310.355    0 1385 256620.086 256310.355  0.12%     -  225s
     0     0 256310.540    0 1385 256620.086 256310.540  0.12%     -  234s
     0     0 256310.553    0 1385 256620.086 256310.553  0.12%     -  242s
     0     0 256310.805    0 1388 256620.086 256310.805  0.12%     -  251s
     0     0 256311.002    0 1388 256620.086 256311.002  0.12%     -  259s
     0     0 256311.802    0 1379 256620.086 256311.802  0.12%     -  268s
     0     0 256313.568    0 1381 256620.086 256313.568  0.12%     -  275s
     0     0 256313.588    0 1385 256620.086 256313.588  0.12%     -  285s
     0     0 256313.698    0 1389 256620.086 256313.698  0.12%     -  293s
     0     0 256314.338    0 1384 256620.086 256314.338  0.12%     -  301s
     0     0 256314.536    0 1384 256620.086 256314.536  0.12%     -  309s
     0     0 256315.201    0 1381 256620.086 256315.201  0.12%     -  318s
     0     0 256315.247    0 1379 256620.086 256315.247  0.12%     -  320s
     0     0 256315.467    0 1378 256620.086 256315.467  0.12%     -  328s
     0     0 256315.776    0 1381 256620.086 256315.776  0.12%     -  336s
     0     0 256316.366    0 1377 256620.086 256316.366  0.12%     -  346s
     0     0 256316.369    0 1381 256620.086 256316.369  0.12%     -  354s
     0     0 256316.369    0 1381 256620.086 256316.369  0.12%     -  354s
     0     2 256316.369    0 1381 256620.086 256316.369  0.12%     -  356s
*    1     0               1    256591.38703 256316.561  0.11%   152  356s

Cutting planes:
  Mod-K: 15

Explored 3 nodes (38017 simplex iterations) in 356.68 seconds
Thread count was 4 (of 4 available processors)

Solution count 6: 256591 256620 259550 ... 639792
Pool objective bound 256591

Optimal solution found (tolerance 1.00e-04)
Best objective 2.565913870316e+05, best bound 2.565913870316e+05, gap 0.0000%
Optimize a model with 7976 rows, 80529 columns and 167918 nonzeros
Variable types: 0 continuous, 80529 integer (80529 binary)
Coefficient statistics:
  Matrix range     [1e+00, 1e+05]
  Objective range  [3e-01, 3e+02]
  Bounds range     [1e+00, 1e+00]
  RHS range        [1e+00, 6e+00]
Found heuristic solution: objective 786580
Presolve removed 716 rows and 12564 columns
Presolve time: 0.36s
Presolved: 7260 rows, 67965 columns, 142423 nonzeros

MIP start did not produce a new incumbent solution
MIP start violates constraint R0 by 169999.000000000

Variable types: 0 continuous, 67965 integer (67965 binary)

Root relaxation: objective 2.207029e+05, 5166 iterations, 0.10 seconds

    Nodes    |    Current Node    |     Objective Bounds      |     Work
 Expl Unexpl |  Obj  Depth IntInf | Incumbent    BestBd   Gap | It/Node Time

     0     0 220702.946    0   85 786580.155 220702.946  71.9%     -    0s
H    0     0                    284025.04842 220702.946  22.3%     -    0s
H    0     0                    258488.77502 220702.946  14.6%     -    1s
     0     0 237012.212    0 2687 258488.775 237012.212  8.31%     -    2s
     0     0 240259.763    0 2703 258488.775 240259.763  7.05%     -    3s
     0     0 249298.595    0 4854 258488.775 249298.595  3.56%     -    9s
     0     0 249416.529    0 5575 258488.775 249416.529  3.51%     -   12s
     0     0 253059.535    0 6028 258488.775 253059.535  2.10%     -   16s
     0     0 253477.356    0 5953 258488.775 253477.356  1.94%     -   19s
     0     0 255048.574    0 5690 258488.775 255048.574  1.33%     -   22s
     0     0 255438.825    0 5843 258488.775 255438.825  1.18%     -   28s
     0     0 255871.904    0 6234 258488.775 255871.904  1.01%     -   31s
     0     0 255969.260    0 5507 258488.775 255969.260  0.97%     -   31s
     0     0 256168.393    0 5366 258488.775 256168.393  0.90%     -   43s
     0     0 256174.995    0 5383 258488.775 256174.995  0.90%     -   44s
     0     0 256250.189    0 4187 258488.775 256250.189  0.87%     -   51s
     0     0 256253.349    0 4427 258488.775 256253.349  0.86%     -   51s
     0     0 256289.619    0 2186 258488.775 256289.619  0.85%     -   53s
     0     0 256289.706    0 2187 258488.775 256289.706  0.85%     -   53s
     0     0 256295.592    0 1474 258488.775 256295.592  0.85%     -   54s
     0     0 256295.919    0 1486 258488.775 256295.919  0.85%     -   54s
     0     0 256296.716    0 1486 258488.775 256296.716  0.85%     -   67s
     0     0 256296.716    0 1486 258488.775 256296.716  0.85%     -   68s
H    0     0                    257614.79906 256296.716  0.51%     -   70s
H    0     0                    256656.64451 256296.716  0.14%     -   70s
     0     0 256297.057    0 1497 256656.645 256297.057  0.14%     -   75s
H    0     0                    256620.08612 256297.057  0.13%     -   75s
     0     0 256304.438    0 1497 256620.086 256304.438  0.12%     -   80s
     0     0 256304.438    0 1497 256620.086 256304.438  0.12%     -   83s
     0     0 256304.438    0 1497 256620.086 256304.438  0.12%     -   86s
     0     0 256310.350    0 1497 256620.086 256310.350  0.12%     -   88s
     0     0 256310.547    0 1497 256620.086 256310.547  0.12%     -   88s
     0     0 256311.796    0 1497 256620.086 256311.796  0.12%     -   89s
     0     0 256311.994    0 1497 256620.086 256311.994  0.12%     -   89s
     0     0 256315.589    0 1497 256620.086 256315.589  0.12%     -   89s
     0     0 256316.164    0 1497 256620.086 256316.164  0.12%     -   91s
     0     0 256316.477    0 1502 256620.086 256316.477  0.12%     -   94s
     0     0 256317.191    0 1502 256620.086 256317.191  0.12%     -   96s
     0     0 256319.745    0 1502 256620.086 256319.745  0.12%     -   99s
     0     0 256319.943    0 1502 256620.086 256319.943  0.12%     -  101s
     0     0 256320.151    0 1502 256620.086 256320.151  0.12%     -  102s
     0     0 256320.459    0 1502 256620.086 256320.459  0.12%     -  104s
     0     0 256320.657    0 1502 256620.086 256320.657  0.12%     -  107s
     0     0 256322.998    0 1502 256620.086 256322.998  0.12%     -  107s
     0     0 256323.195    0 1502 256620.086 256323.195  0.12%     -  109s
     0     0 256323.712    0 1502 256620.086 256323.712  0.12%     -  109s
     0     0 256323.910    0 1502 256620.086 256323.910  0.12%     -  112s
     0     0 256324.338    0 1502 256620.086 256324.338  0.12%     -  112s
     0     0 256326.540    0 1502 256620.086 256326.540  0.11%     -  114s
     0     0 256326.601    0 1507 256620.086 256326.601  0.11%     -  114s
     0     0 256326.799    0 1507 256620.086 256326.799  0.11%     -  117s
     0     0 256327.501    0 1507 256620.086 256327.501  0.11%     -  117s
     0     0 256327.562    0 1502 256620.086 256327.562  0.11%     -  117s
     0     0 256329.847    0 1502 256620.086 256329.847  0.11%     -  117s
     0     0 256329.908    0 1507 256620.086 256329.908  0.11%     -  120s
     0     0 256330.106    0 1507 256620.086 256330.106  0.11%     -  120s
     0     0 256332.887    0 1507 256620.086 256332.887  0.11%     -  120s
     0     0 256334.399    0 1507 256620.086 256334.399  0.11%     -  122s
     0     0 256334.524    0 1507 256620.086 256334.524  0.11%     -  125s
     0     0 256334.597    0 1507 256620.086 256334.597  0.11%     -  127s
     0     0 256336.418    0 1507 256620.086 256336.418  0.11%     -  127s
     0     0 256336.892    0 1513 256620.086 256336.892  0.11%     -  129s
     0     0 256340.332    0 1513 256620.086 256340.332  0.11%     -  132s
     0     0 256341.955    0 1508 256620.086 256341.955  0.11%     -  134s
     0     0 256342.773    0 1513 256620.086 256342.773  0.11%     -  134s
     0     0 256343.314    0 1516 256620.086 256343.314  0.11%     -  136s
     0     0 256344.737    0 1516 256620.086 256344.737  0.11%     -  138s
     0     0 256345.459    0 1516 256620.086 256345.459  0.11%     -  139s
     0     0 256346.180    0 1518 256620.086 256346.180  0.11%     -  141s
     0     0 256346.465    0 1516 256620.086 256346.465  0.11%     -  141s
     0     0 256346.871    0 1516 256620.086 256346.871  0.11%     -  142s
     0     0 256347.500    0 1516 256620.086 256347.500  0.11%     -  143s
     0     0 256348.348    0 1522 256620.086 256348.348  0.11%     -  145s
     0     0 256349.195    0 1516 256620.086 256349.195  0.11%     -  145s
     0     0 256349.673    0 1523 256620.086 256349.673  0.11%     -  146s
     0     0 256352.438    0 1522 256620.086 256352.438  0.10%     -  148s
     0     0 256352.890    0 1523 256620.086 256352.890  0.10%     -  148s
     0     0 256353.538    0 1523 256620.086 256353.538  0.10%     -  149s
     0     0 256356.754    0 1523 256620.086 256356.754  0.10%     -  150s
     0     0 256359.776    0 1523 256620.086 256359.776  0.10%     -  152s
     0     0 256360.059    0 1526 256620.086 256360.059  0.10%     -  153s
     0     0 256361.527    0 1527 256620.086 256361.527  0.10%     -  153s
     0     0 256362.528    0 1528 256620.086 256362.528  0.10%     -  155s
     0     0 256363.599    0 1523 256620.086 256363.599  0.10%     -  155s
     0     0 256363.797    0 1523 256620.086 256363.797  0.10%     -  156s
     0     0 256364.093    0 1523 256620.086 256364.093  0.10%     -  156s
     0     0 256364.291    0 1523 256620.086 256364.291  0.10%     -  157s
     0     0 256365.130    0 1523 256620.086 256365.130  0.10%     -  158s
     0     0 256365.328    0 1523 256620.086 256365.328  0.10%     -  159s
     0     0 256366.592    0 1523 256620.086 256366.592  0.10%     -  159s
     0     0 256366.620    0 1523 256620.086 256366.620  0.10%     -  161s
     0     0 256366.705    0 1532 256620.086 256366.705  0.10%     -  161s
     0     0 256368.640    0 1524 256620.086 256368.640  0.10%     -  161s
     0     0 256369.768    0 1527 256620.086 256369.768  0.10%     -  161s
     0     0 256370.262    0 1527 256620.086 256370.262  0.10%     -  163s
     0     0 256370.445    0 1527 256620.086 256370.445  0.10%     -  164s
     0     0 256370.493    0 1534 256620.086 256370.493  0.10%     -  164s
     0     0 256370.493    0 1534 256620.086 256370.493  0.10%     -  165s
     0     2 256370.493    0 1534 256620.086 256370.493  0.10%     -  165s
*    1     0               1    256591.38703 256370.636  0.09%   145  165s

Cutting planes:
  Gomory: 3
  Zero half: 48

Explored 3 nodes (44160 simplex iterations) in 165.81 seconds
Thread count was 4 (of 4 available processors)

Solution count 7: 256591 256620 256657 ... 786580
Pool objective bound 256591

Optimal solution found (tolerance 1.00e-04)
Best objective 2.565913870316e+05, best bound 2.565913870316e+05, gap 0.0000%
Optimize a model with 8316 rows, 80529 columns and 168938 nonzeros
Variable types: 0 continuous, 80529 integer (80529 binary)
Coefficient statistics:
  Matrix range     [1e+00, 1e+05]
  Objective range  [3e-01, 3e+02]
  Bounds range     [1e+00, 1e+00]
  RHS range        [1e+00, 6e+00]
Found heuristic solution: objective 515831
Presolve removed 716 rows and 12564 columns
Presolve time: 0.36s
Presolved: 7600 rows, 67965 columns, 143443 nonzeros

MIP start did not produce a new incumbent solution
MIP start violates constraint R0 by 169999.000000000

Variable types: 0 continuous, 67965 integer (67965 binary)

Root relaxation: objective 2.209040e+05, 5280 iterations, 0.14 seconds

    Nodes    |    Current Node    |     Objective Bounds      |     Work
 Expl Unexpl |  Obj  Depth IntInf | Incumbent    BestBd   Gap | It/Node Time

     0     0 220904.041    0  379 515831.004 220904.041  57.2%     -    0s
H    0     0                    288032.16187 220904.041  23.3%     -    1s
H    0     0                    259984.85638 220904.041  15.0%     -    1s
     0     0 237656.116    0 2065 259984.856 237656.116  8.59%     -    4s
     0     0 241791.922    0 2777 259984.856 241791.922  7.00%     -    7s
     0     0 250275.793    0 5818 259984.856 250275.793  3.73%     -   12s
     0     0 250600.294    0 5559 259984.856 250600.294  3.61%     -   14s
     0     0 254788.717    0 6425 259984.856 254788.717  2.00%     -   23s
     0     0 254864.261    0 6335 259984.856 254864.261  1.97%     -   23s
     0     0 256923.759    0 5851 259984.856 256923.759  1.18%     -   26s
     0     0 257158.236    0 6986 259984.856 257158.236  1.09%     -   27s
     0     0 257696.434    0 6011 259984.856 257696.434  0.88%     -   30s
H    0     0                    257761.50951 257696.434  0.03%     -   30s
     0     0 257712.127    0 5908 257761.510 257712.127  0.02%     -   31s
     0     0 257750.364    0 1071 257761.510 257750.364  0.00%     -   55s

Cutting planes:
  Gomory: 2
  Cover: 90
  Clique: 4452
  MIR: 55
  Zero half: 1

Explored 0 nodes (18152 simplex iterations) in 55.56 seconds
Thread count was 4 (of 4 available processors)

Solution count 4: 257762 259985 288032 515831 
Pool objective bound 257750

Optimal solution found (tolerance 1.00e-04)
Best objective 2.577615095053e+05, best bound 2.577503637048e+05, gap 0.0043%
Optimize a model with 8572 rows, 80529 columns and 169706 nonzeros
Variable types: 0 continuous, 80529 integer (80529 binary)
Coefficient statistics:
  Matrix range     [1e+00, 1e+05]
  Objective range  [3e-01, 3e+02]
  Bounds range     [1e+00, 1e+00]
  RHS range        [1e+00, 6e+00]
Found heuristic solution: objective 765134
Presolve removed 716 rows and 12564 columns
Presolve time: 0.34s
Presolved: 7856 rows, 67965 columns, 144211 nonzeros

MIP start did not produce a new incumbent solution
MIP start violates constraint R0 by 169999.000000000

Variable types: 0 continuous, 67965 integer (67965 binary)

Root relaxation: objective 2.221696e+05, 6016 iterations, 0.37 seconds

    Nodes    |    Current Node    |     Objective Bounds      |     Work
 Expl Unexpl |  Obj  Depth IntInf | Incumbent    BestBd   Gap | It/Node Time

     0     0 222169.649    0  315 765134.375 222169.649  71.0%     -    0s
H    0     0                    304677.31338 222169.649  27.1%     -    1s
H    0     0                    276369.08416 222169.649  19.6%     -    1s
     0     0 239853.180    0 3086 276369.084 239853.180  13.2%     -    5s
     0     0 242317.422    0 3081 276369.084 242317.422  12.3%     -    6s
     0     0 250986.301    0 6493 276369.084 250986.301  9.18%     -   11s
     0     0 251850.141    0 6427 276369.084 251850.141  8.87%     -   13s
     0     0 254922.449    0 6536 276369.084 254922.449  7.76%     -   17s
H    0     0                    261645.55294 254922.449  2.57%     -   18s
     0     0 255001.847    0 6255 261645.553 255001.847  2.54%     -   18s
     0     0 257209.094    0 6860 261645.553 257209.094  1.70%     -   21s
     0     0 257283.426    0 6940 261645.553 257283.426  1.67%     -   23s
     0     0 257686.578    0 4912 261645.553 257686.578  1.51%     -   25s
H    0     0                    257856.99128 257686.578  0.07%     -   25s
     0     0 257718.695    0 4873 257856.991 257718.695  0.05%     -   26s
     0     0 257750.782    0 3685 257856.991 257750.782  0.04%     -   27s
H    0     0                    257797.07321 257750.782  0.02%     -   29s
*    0     0               0    257751.48488 257751.485  0.00%     -   31s

Explored 0 nodes (30814 simplex iterations) in 31.04 seconds
Thread count was 4 (of 4 available processors)

Solution count 7: 257751 257797 257857 ... 765134
Pool objective bound 257751

Optimal solution found (tolerance 1.00e-04)
Best objective 2.577514848819e+05, best bound 2.577514848819e+05, gap 0.0000%
Optimize a model with 8604 rows, 80529 columns and 169802 nonzeros
Variable types: 0 continuous, 80529 integer (80529 binary)
Coefficient statistics:
  Matrix range     [1e+00, 1e+05]
  Objective range  [3e-01, 3e+02]
  Bounds range     [1e+00, 1e+00]
  RHS range        [1e+00, 6e+00]
Found heuristic solution: objective 765134
Presolve removed 716 rows and 12564 columns
Presolve time: 0.36s
Presolved: 7888 rows, 67965 columns, 144307 nonzeros

MIP start did not produce a new incumbent solution
MIP start violates constraint R0 by 169999.000000000

Variable types: 0 continuous, 67965 integer (67965 binary)

Root relaxation: objective 2.221908e+05, 6028 iterations, 0.39 seconds

    Nodes    |    Current Node    |     Objective Bounds      |     Work
 Expl Unexpl |  Obj  Depth IntInf | Incumbent    BestBd   Gap | It/Node Time

     0     0 222190.762    0  315 765134.375 222190.762  71.0%     -    0s
H    0     0                    290960.11359 222190.762  23.6%     -    1s
H    0     0                    281569.39866 222190.762  21.1%     -    1s
     0     0 239662.986    0 2994 281569.399 239662.986  14.9%     -    5s
H    0     0                    281552.49320 239662.986  14.9%     -    6s
     0     0 240458.297    0 3018 281552.493 240458.297  14.6%     -    7s
     0     0 250757.603    0 6472 281552.493 250757.603  10.9%     -   11s
H    0     0                    265320.32344 250757.603  5.49%     -   12s
     0     0 252031.045    0 5791 265320.323 252031.045  5.01%     -   13s
     0     0 254708.276    0 6042 265320.323 254708.276  4.00%     -   16s
     0     0 254802.076    0 6330 265320.323 254802.076  3.96%     -   18s
     0     0 257006.065    0 6855 265320.323 257006.065  3.13%     -   22s
H    0     0                    257971.61600 257006.065  0.37%     -   22s
     0     0 257114.575    0 5896 257971.616 257114.575  0.33%     -   28s
     0     0 257685.126    0 5186 257971.616 257685.126  0.11%     -   31s
H    0     0                    257837.98250 257685.126  0.06%     -   32s
     0     0 257750.876    0 6408 257837.982 257750.876  0.03%     -   32s
     0     0 257836.310    0 1493 257837.982 257836.310  0.00%     -   49s

Cutting planes:
  Gomory: 1
  Cover: 87
  Clique: 5094
  MIR: 58
  StrongCG: 1
  Zero half: 2

Explored 0 nodes (20618 simplex iterations) in 49.72 seconds
Thread count was 4 (of 4 available processors)

Solution count 7: 257838 257972 265320 ... 765134
Pool objective bound 257836

Optimal solution found (tolerance 1.00e-04)
Best objective 2.578379824998e+05, best bound 2.578363097749e+05, gap 0.0006%
